c ca-CondMat: Collaboration network of Arxiv Condensed Matter category (there is an edge if authors coauthored at least one paper) https://snap.stanford.edu/data/ca-CondMat.html
p edge 8 7
e 1 3
e 1 8
e 2 3
e 2 4
e 2 6
e 3 5
e 3 7
l 5
t 4 8
